NAME : portcgen-17-16
COMMENT : portcgen N=17, seed=16
TYPE : TSP
DIMENSION : 17
EDGE_WEIGHT_TYPE : EUC_2D
NODE_COORD_SECTION
1 -69819 -92382
2 -158732 -228911
3 324444 -81119
4 -278479 229740
5 172527 8789
6 -482131 211653
7 106777 253797
8 121638 307892
9 -122462 -145140
10 -89377 498583
11 66374 -128638
12 71084 -197920
13 -495987 172656
14 615569 -65046
15 205462 -211252
16 156462 -62936
17 247511 -71120
